Route #1: 45 27 7 20 36 37
Route #2: 13 15 47 5 60
Route #3: 22 42 21 51 62 61
Route #4: 9 25 35 26 39 52 34
Route #5: 50 18 1 57 54 6
Route #6: 40 3 46 8 59 30
Route #7: 28 48 32 55 29
Route #8: 33 43 24 17 14 41
Route #9: 31 49 56 4 44 16
Route #10: 19 2 58 12 11 53 38 23 10
cost 1775.965576171875